12
0 10 32 46 33 4 2 99 19 78 65 98 
95 0 59 76 43 8 89 39 64 97 2 92 
21 23 0 60 69 66 15 5 99 55 73 56 
6 51 65 0 84 26 99 85 84 54 1 99 
75 55 4 69 0 29 91 62 34 17 1 21 
22 72 92 75 36 0 53 16 20 91 87 29 
28 52 40 91 53 27 0 84 52 85 72 74 
48 96 78 24 26 29 20 0 85 72 11 68 
62 56 6 90 29 96 37 42 0 50 23 38 
13 10 89 80 11 74 5 25 88 0 52 92 
100 57 12 25 40 82 90 79 22 58 0 98 
79 99 72 59 10 14 95 37 97 8 12 0 
